p cnf 120 425
4 -2 0
4 3 0
2 -3 -4 0
6 4 0
6 5 0
-4 -5 -6 0
8 6 0
8 -7 0
-6 7 -8 0
9 1 0
9 -8 0
-1 8 -9 0
10 -11 -12 0
-10 11 -12 0
10 11 12 0
-10 -11 12 0
-12 -13 -14 0
12 13 -14 0
-12 13 14 0
12 -13 14 0
-15 -9 0
-15 14 0
9 -14 15 0
-19 -17 0
-19 18 0
17 -18 19 0
16 19 -20 0
-16 -19 -20 0
16 -19 20 0
-16 19 20 0
-22 10 0
-22 21 0
-10 -21 22 0
-22 3 -23 0
22 -3 -23 0
-22 -3 23 0
22 3 23 0
24 20 0
24 23 0
-20 -23 -24 0
-2 5 -25 0
2 -5 -25 0
-2 -5 25 0
2 5 25 0
-26 25 0
-26 -10 0
-25 10 26 0
-7 -26 -27 0
7 26 -27 0
-7 26 27 0
7 -26 27 0
-2 -3 -28 0
2 3 -28 0
-2 3 28 0
2 -3 28 0
29 27 0
29 -28 0
-27 28 -29 0
-30 24 0
-30 29 0
-24 -29 30 0
-31 -15 0
-31 30 0
15 -30 31 0
33 13 0
33 -12 0
-13 12 -33 0
22 33 -34 0
-22 -33 -34 0
22 -33 34 0
-22 33 34 0
-35 32 0
-35 -34 0
-32 34 35 0
-23 -35 -36 0
23 35 -36 0
-23 35 36 0
23 -35 36 0
2 -5 -37 0
-2 5 -37 0
2 5 37 0
-2 -5 37 0
-38 11 0
-38 37 0
-11 -37 38 0
-2 -18 -39 0
2 18 -39 0
-2 18 39 0
2 -18 39 0
-34 -39 -40 0
34 39 -40 0
-34 39 40 0
34 -39 40 0
42 -37 0
42 41 0
37 -41 -42 0
-43 41 0
-43 3 0
-41 -3 43 0
44 -42 0
44 43 0
42 -43 -44 0
45 -40 0
45 -44 0
40 44 -45 0
-46 -38 0
-46 -45 0
38 45 46 0
-47 -34 0
-47 -46 0
34 46 47 0
-48 7 0
-48 -35 0
-7 35 48 0
49 -47 0
49 -48 0
47 48 -49 0
36 -49 -50 0
-36 49 -50 0
36 49 50 0
-36 -49 50 0
51 -25 0
51 -37 0
25 37 -51 0
52 -7 0
52 -43 0
7 43 -52 0
-51 -52 -53 0
51 52 -53 0
-51 52 53 0
51 -52 53 0
-11 53 -54 0
11 -53 -54 0
-11 -53 54 0
11 53 54 0
-55 -50 0
-55 54 0
50 -54 55 0
38 -6 -56 0
-38 6 -56 0
38 6 56 0
-38 -6 56 0
57 -56 0
57 23 0
56 -23 -57 0
-37 -57 -58 0
37 57 -58 0
-37 57 58 0
37 -57 58 0
59 -55 0
59 58 0
55 -58 -59 0
-60 -7 0
-60 17 0
7 -17 60 0
-61 33 0
-61 -51 0
-33 51 61 0
-62 60 0
-62 -61 0
-60 61 62 0
-63 -18 0
-63 2 0
18 -2 63 0
-64 -62 0
-64 -63 0
62 63 64 0
-65 -2 0
-65 18 0
2 -18 65 0
-64 -65 -66 0
64 65 -66 0
-64 65 66 0
64 -65 66 0
-67 3 0
-67 6 0
-3 -6 67 0
66 -67 -68 0
-66 67 -68 0
66 67 68 0
-66 -67 68 0
69 22 0
69 -33 0
-22 33 -69 0
70 6 0
70 -41 0
-6 41 -70 0
71 70 0
71 -11 0
-70 11 -71 0
72 -12 0
72 71 0
12 -71 -72 0
73 -70 0
73 28 0
70 -28 -73 0
-74 73 0
-74 -3 0
-73 3 74 0
75 -72 0
75 -74 0
72 74 -75 0
76 69 0
76 -75 0
-69 75 -76 0
-77 -33 0
-77 -18 0
33 18 77 0
-78 -76 0
-78 77 0
76 -77 78 0
68 78 -79 0
-68 -78 -79 0
68 -78 79 0
-68 78 79 0
80 -59 0
80 79 0
59 -79 -80 0
81 39 0
81 3 0
-39 -3 -81 0
82 80 0
82 81 0
-80 -81 -82 0
83 70 0
83 -32 0
-70 32 -83 0
-82 83 -84 0
82 -83 -84 0
-82 -83 84 0
82 83 84 0
38 5 -85 0
-38 -5 -85 0
38 -5 85 0
-38 5 85 0
-86 -42 0
-86 -2 0
42 2 86 0
-87 -86 0
-87 -40 0
86 40 87 0
88 -85 0
88 87 0
85 -87 -88 0
89 35 0
89 25 0
-35 -25 -89 0
90 -23 0
90 -89 0
23 89 -90 0
88 90 -91 0
-88 -90 -91 0
88 -90 91 0
-88 90 91 0
-92 -10 0
-92 21 0
10 -21 92 0
52 39 -93 0
-52 -39 -93 0
52 -39 93 0
-52 39 93 0
-40 -93 -94 0
40 93 -94 0
-40 93 94 0
40 -93 94 0
-95 28 0
-95 -32 0
-28 32 95 0
96 94 0
96 -95 0
-94 95 -96 0
97 -92 0
97 -96 0
92 96 -97 0
-91 97 -98 0
91 -97 -98 0
-91 -97 98 0
91 97 98 0
99 84 0
99 -98 0
-84 98 -99 0
-100 31 0
-100 99 0
-31 -99 100 0
-20 -56 -101 0
20 56 -101 0
-20 56 101 0
20 -56 101 0
102 22 0
102 -3 0
-22 3 -102 0
-103 -101 0
-103 -102 0
101 102 103 0
-35 -33 -104 0
35 33 -104 0
-35 33 104 0
35 -33 104 0
-45 -4 -105 0
45 4 -105 0
-45 4 105 0
45 -4 105 0
-106 -104 0
-106 -105 0
104 105 106 0
-107 -13 0
-107 -4 0
13 4 107 0
20 89 -108 0
-20 -89 -108 0
20 -89 108 0
-20 89 108 0
-6 26 -109 0
6 -26 -109 0
-6 -26 109 0
6 26 109 0
-109 20 -110 0
109 -20 -110 0
-109 -20 110 0
109 20 110 0
-111 -108 0
-111 -110 0
108 110 111 0
-107 111 -112 0
107 -111 -112 0
-107 -111 112 0
107 111 112 0
-113 106 0
-113 112 0
-106 -112 113 0
-3 39 -114 0
3 -39 -114 0
-3 -39 114 0
3 39 114 0
115 -2 0
115 70 0
2 -70 -115 0
116 23 0
116 -115 0
-23 115 -116 0
-117 -114 0
-117 116 0
114 -116 117 0
113 117 -118 0
-113 -117 -118 0
113 -117 118 0
-113 117 118 0
-119 -103 0
-119 118 0
103 -118 119 0
120 -100 0
120 -119 0
100 119 -120 0
-79 50 -53 45 -8 0
-68 -32 -10 -98 -62 -101 0
21 92 115 110 0
-53 -44 110 -35 119 0
-5 6 84 30 -49 38 0
22 -64 -102 -107 -6 -53 0
-83 -106 36 22 0
-39 43 -57 -85 0
-19 119 -111 116 0
-85 -56 -5 0
-40 -44 0
20 -87 -109 114 0
-98 -102 -9 96 0
-12 120 0
119 96 70 -65 89 109 0
-43 -83 -36 -12 0
-58 -49 -85 92 0
112 -6 -80 -104 0
95 -51 114 0
82 -39 85 -120 83 0
-8 12 0
-71 7 61 -27 0
-12 -3 40 -102 -97 0
29 -101 -39 -81 -20 0
-53 15 86 -25 0
13 -53 114 -45 0
98 -120 0
-87 40 -12 69 0
-20 -6 -16 88 0
41 116 0
-95 69 -73 -9 -117 6 0
-82 114 107 0
15 -47 0
-50 51 41 91 25 -118 0
-39 117 0
44 -63 -68 119 -98 -86 0
-4 -115 -31 35 -93 -68 0
-35 80 0
-29 72 -109 7 0
-101 -43 76 -91 83 94 0
-53 100 101 21 0
79 -83 0
29 -69 0
-2 -115 -81 50 17 0
102 40 5 0
109 -6 90 -118 -40 -113 0
-62 91 0
41 103 4 116 -113 -1 0
6 52 8 -17 85 0
112 28 70 0
27 -79 -5 -83 99 32 0
57 50 0
-106 -27 46 77 0
-99 111 88 -54 38 -33 0
91 67 0
83 56 0
-1 4 57 -2 72 0
-59 -30 0
-40 -10 86 -41 0
-6 -84 91 0
-33 -43 0
64 -80 -94 -91 -95 68 0
-31 104 19 -59 28 -79 0
64 -75 0
-109 29 106 0
88 82 -104 -20 -97 0
88 17 -78 -72 0
-41 -107 27 38 -75 0
-46 120 -102 0
-14 39 49 83 15 23 0
-21 -67 0
120 0
